1153.0 13322.0 3069.0 
1125.0 13794.0 3861.0 
1125.0 13812.0 3840.0 
1145.0 13359.0 3165.0 
1122.0 14195.0 4166.0 
1160.0 13504.0 2993.0 
1181.0 13474.0 2828.0 
1147.0 13350.0 3070.0 
1192.0 13393.0 2785.0 
1145.0 13325.0 3213.0 
1249.0 13398.0 2719.0 
1161.0 13505.0 2881.0 
1198.0 13255.0 2826.0 
1247.0 13212.0 2745.0 
1235.0 13562.0 2758.0 
1231.0 13451.0 2766.0 
1161.0 13336.0 3012.0 
1138.0 13399.0 3092.0 
1131.0 13708.0 3454.0 
1123.0 13776.0 3894.0 
1212.0 13061.0 2779.0 
1239.0 13506.0 2700.0 
1263.0 13045.0 2825.0 
1250.0 13367.0 2561.0 
1163.0 13314.0 3228.0 
1211.0 13131.0 2863.0 
1179.0 13032.0 2894.0 
